c defined variables: 8 9 10 11 12 13 14 15 16 17 18 19 20 21 22 23 24 25 26 27 28 29 30 31 32 33 44 45 48 49 50 52 54 55 56 57 58 59 62 63 64 65 66 68 69 
p cnf 336 500
a 1 2 3 4 5 6 7 37 38 39 40 41 42 43 0
e 8 9 10 11 12 13 14 15 16 17 18 19 20 21 22 23 24 25 26 27 28 29 30 31 32 33 44 45 48 49 50 52 54 55 56 57 58 59 62 63 64 65 66 68 69 265 266 267 268 269 270 271 272 273 274 275 276 277 278 279 280 281 282 283 284 285 286 287 288 289 290 291 292 293 294 295 296 297 298 299 300 301 302 303 304 305 306 307 308 309 310 311 312 313 314 315 316 317 318 319 320 321 322 323 324 325 326 327 328 329 330 331 332 333 334 335 336 0
d 34 37 38 39 40 0
d 35 37 38 39 40 0
d 36 41 42 43 0
d 46 1 2 3 4 5 6 7 37 38 39 40 41 42 43 0
d 47 1 2 3 4 5 6 7 37 38 39 40 41 42 43 0
d 51 1 2 3 4 5 6 7 37 38 39 40 41 42 43 0
d 53 1 2 3 4 5 6 7 37 38 39 40 41 42 43 0
d 60 1 2 3 4 5 6 7 37 38 39 40 41 42 43 0
d 61 1 2 3 4 5 6 7 37 38 39 40 41 42 43 0
d 67 1 2 3 4 5 6 7 37 38 39 40 41 42 43 0
265 -8 0
-265 8 0
266 -9 0
-266 9 0
-267 -10 0
267 10 0
268 -11 0
-268 11 0
269 -12 0
-269 12 0
-270 -13 0
270 13 0
271 -14 0
-271 14 0
272 -15 0
-272 15 0
-273 -16 0
273 16 0
274 -17 0
-274 17 0
275 -18 0
-275 18 0
-276 -19 0
276 19 0
277 -20 0
-277 20 0
278 -21 0
-278 21 0
-279 -22 0
279 22 0
-280 -23 0
280 23 0
281 -24 0
-281 24 0
283 -25 0
-283 25 0
285 -26 0
-285 26 0
-287 -27 0
287 27 0
288 -28 0
-288 28 0
289 -29 0
-289 29 0
291 -30 0
-291 30 0
292 -31 0
-292 31 0
293 -32 0
-293 32 0
-297 -33 0
297 33 0
-280 -44 0
280 44 0
281 -45 0
-281 45 0
-299 -48 0
299 48 0
300 -49 0
-300 49 0
301 -50 0
-301 50 0
292 -52 0
-292 52 0
-305 -54 0
305 54 0
265 -55 0
-265 55 0
266 -56 0
-266 56 0
-306 -57 0
306 57 0
309 -58 0
-309 58 0
312 -59 0
-312 59 0
315 -62 0
-315 62 0
318 -63 0
-318 63 0
321 -64 0
-321 64 0
324 -65 0
-324 65 0
330 -66 0
-330 66 0
333 -68 0
-333 68 0
336 -69 0
-336 69 0
-8 1 0
-8 4 0
-1 -4 8 0
-9 -1 0
-9 -4 0
1 4 9 0
-8 10 0
-9 10 0
-10 8 9 0
-11 7 0
-11 10 0
-7 -10 11 0
-12 -7 0
-12 -10 0
7 10 12 0
-11 13 0
-12 13 0
-13 11 12 0
-14 4 0
-14 7 0
-4 -7 14 0
-15 1 0
-15 -13 0
-1 13 15 0
-14 16 0
-15 16 0
-16 14 15 0
-17 3 0
-17 6 0
-3 -6 17 0
-18 -3 0
-18 -6 0
3 6 18 0
-17 19 0
-18 19 0
-19 17 18 0
-20 16 0
-20 19 0
-16 -19 20 0
-21 -16 0
-21 -19 0
16 19 21 0
-20 22 0
-21 22 0
-22 20 21 0
-2 23 0
-5 23 0
-23 2 5 0
-24 2 0
-24 5 0
-2 -5 24 0
-25 3 0
-25 -22 0
-25 23 0
-3 22 -23 25 0
-26 6 0
-26 16 0
-26 23 0
-6 -16 -23 26 0
-24 27 0
-25 27 0
-26 27 0
-27 24 25 26 0
-28 -27 0
-28 23 0
27 -23 28 0
-29 3 0
-29 6 0
-29 -27 0
-3 -6 27 29 0
-30 -27 0
-30 -22 0
-30 16 0
27 22 -16 30 0
-31 2 0
-31 3 0
-31 5 0
-31 6 0
-2 -3 -5 -6 31 0
-32 2 0
-32 5 0
-32 -22 0
-32 16 0
-2 -5 22 -16 32 0
-28 33 0
-29 33 0
-30 33 0
-31 33 0
-32 33 0
-33 28 29 30 31 32 0
-2 44 0
-5 44 0
-44 2 5 0
-45 2 0
-45 5 0
-2 -5 45 0
-46 3 0
-46 -36 0
-46 44 0
-3 36 -44 46 0
-47 6 0
-47 34 0
-47 44 0
-6 -34 -44 47 0
-45 48 0
-46 48 0
-47 48 0
-48 45 46 47 0
-49 -48 0
-49 44 0
48 -44 49 0
-50 3 0
-50 6 0
-50 -48 0
-3 -6 48 50 0
-51 -48 0
-51 -36 0
-51 34 0
48 36 -34 51 0
-52 2 0
-52 3 0
-52 5 0
-52 6 0
-2 -3 -5 -6 52 0
-53 2 0
-53 5 0
-53 -36 0
-53 34 0
-2 -5 36 -34 53 0
-49 54 0
-50 54 0
-51 54 0
-52 54 0
-53 54 0
-54 49 50 51 52 53 0
-55 1 0
-55 4 0
-1 -4 55 0
-56 -1 0
-56 -4 0
1 4 56 0
-55 57 0
-56 57 0
-57 55 56 0
-58 -27 48 0
-58 27 -48 0
58 -27 -48 0
58 27 48 0
-59 -33 54 0
-59 33 -54 0
59 -33 -54 0
59 33 54 0
-60 -22 36 0
-60 22 -36 0
60 -22 -36 0
60 22 36 0
-61 -13 35 0
-61 13 -35 0
61 -13 -35 0
61 13 35 0
-58 -59 -60 -61 62 0
-62 58 0
-62 59 0
-62 60 0
-62 61 0
-1 -37 -63 0
-1 37 63 0
1 -37 63 0
1 37 -63 0
-4 -38 -64 0
-4 38 64 0
4 -38 64 0
4 38 -64 0
-7 -39 -65 0
-7 39 65 0
7 -39 65 0
7 39 -65 0
-57 -40 -66 0
-57 40 66 0
57 -40 66 0
57 40 -66 0
-34 -41 -67 0
-34 41 67 0
34 -41 67 0
34 41 -67 0
-3 -42 -68 0
-3 42 68 0
3 -42 68 0
3 42 -68 0
-6 -43 -69 0
-6 43 69 0
6 -43 69 0
6 43 -69 0
63 64 65 66 67 68 69 62 0
1 -265 0
4 -265 0
-1 -4 265 0
-1 -266 0
-4 -266 0
1 4 266 0
-8 -267 0
-9 -267 0
8 9 267 0
7 -268 0
10 -268 0
-7 -10 268 0
-7 -269 0
-10 -269 0
7 10 269 0
-11 -270 0
-12 -270 0
11 12 270 0
4 -271 0
7 -271 0
-4 -7 271 0
1 -272 0
-13 -272 0
-1 13 272 0
-14 -273 0
-15 -273 0
14 15 273 0
3 -274 0
6 -274 0
-3 -6 274 0
-3 -275 0
-6 -275 0
3 6 275 0
-17 -276 0
-18 -276 0
17 18 276 0
16 -277 0
19 -277 0
-16 -19 277 0
-16 -278 0
-19 -278 0
16 19 278 0
-20 -279 0
-21 -279 0
20 21 279 0
-2 -280 0
-5 -280 0
2 5 280 0
2 -281 0
5 -281 0
-2 -5 281 0
3 -282 0
-22 -282 0
-3 22 282 0
23 -283 0
282 -283 0
-23 -282 283 0
6 -284 0
16 -284 0
-6 -16 284 0
23 -285 0
284 -285 0
-23 -284 285 0
-24 -286 0
-25 -286 0
24 25 286 0
-26 -287 0
286 -287 0
26 -286 287 0
23 -288 0
-27 -288 0
-23 27 288 0
-27 -289 0
274 -289 0
27 -274 289 0
16 -290 0
-22 -290 0
-16 22 290 0
-27 -291 0
290 -291 0
27 -290 291 0
274 -292 0
281 -292 0
-274 -281 292 0
281 -293 0
290 -293 0
-281 -290 293 0
-28 -294 0
-29 -294 0
28 29 294 0
-30 -295 0
-31 -295 0
30 31 295 0
-32 -296 0
295 -296 0
32 -295 296 0
294 -297 0
296 -297 0
-294 -296 297 0
-45 -298 0
-46 -298 0
45 46 298 0
-47 -299 0
298 -299 0
47 -298 299 0
44 -300 0
-48 -300 0
-44 48 300 0
-48 -301 0
274 -301 0
48 -274 301 0
-49 -302 0
-50 -302 0
49 50 302 0
-51 -303 0
-52 -303 0
51 52 303 0
-53 -304 0
303 -304 0
53 -303 304 0
302 -305 0
304 -305 0
-302 -304 305 0
-55 -306 0
-56 -306 0
55 56 306 0
27 -307 0
-48 -307 0
-27 48 307 0
-27 -308 0
48 -308 0
27 -48 308 0
-307 -309 0
-308 -309 0
307 308 309 0
33 -310 0
-54 -310 0
-33 54 310 0
-33 -311 0
54 -311 0
33 -54 311 0
-310 -312 0
-311 -312 0
310 311 312 0
58 -313 0
59 -313 0
-58 -59 313 0
60 -314 0
61 -314 0
-60 -61 314 0
313 -315 0
314 -315 0
-313 -314 315 0
-1 -316 0
-37 -316 0
1 37 316 0
1 -317 0
37 -317 0
-1 -37 317 0
-316 -318 0
-317 -318 0
316 317 318 0
-4 -319 0
-38 -319 0
4 38 319 0
4 -320 0
38 -320 0
-4 -38 320 0
-319 -321 0
-320 -321 0
319 320 321 0
-7 -322 0
-39 -322 0
7 39 322 0
7 -323 0
39 -323 0
-7 -39 323 0
-322 -324 0
-323 -324 0
322 323 324 0
-265 -325 0
-266 -325 0
265 266 325 0
-40 -326 0
57 -326 0
40 -57 326 0
-325 -327 0
-326 -327 0
325 326 327 0
40 -328 0
-57 -328 0
-40 57 328 0
325 -329 0
-328 -329 0
-325 328 329 0
-327 -330 0
-329 -330 0
327 329 330 0
-3 -331 0
-42 -331 0
3 42 331 0
3 -332 0
42 -332 0
-3 -42 332 0
-331 -333 0
-332 -333 0
331 332 333 0
-6 -334 0
-43 -334 0
6 43 334 0
6 -335 0
43 -335 0
-6 -43 335 0
-334 -336 0
-335 -336 0
334 335 336 0
